
Gurobi 9.0.2 (win64, Python) logging started Wed May  6 12:18:09 2020

Using license file C:\Users\andrebmo\gurobi.lic
Set parameter TokenServer to value 129.241.14.51
Set parameter LogFile to value Instance-i5-v4-s2-t168-m3-is0-ws1.log
Changed value of parameter TimeLimit to 10800.0
   Prev: inf  Min: 0.0  Max: inf  Default: inf
Warning: constraint name "Flow_Conservation:_v5 i4 t154[0,1,26]" has a space
Gurobi Optimizer version 9.0.2 build v9.0.2rc0 (win64)
Optimize a model with 1817 rows, 3099 columns and 35028 nonzeros
Model fingerprint: 0xdd466fd3
Variable types: 0 continuous, 3099 integer (3099 binary)
Coefficient statistics:
  Matrix range     [1e+00, 1e+02]
  Objective range  [1e+04, 4e+05]
  Bounds range     [1e+00, 1e+00]
  RHS range        [1e+00, 6e+02]
Presolve removed 1141 rows and 643 columns
Presolve time: 0.13s
Presolved: 676 rows, 2456 columns, 12451 nonzeros
Variable types: 0 continuous, 2456 integer (2456 binary)

Root relaxation: objective 1.325017e+05, 735 iterations, 0.01 seconds

    Nodes    |    Current Node    |     Objective Bounds      |     Work
 Expl Unexpl |  Obj  Depth IntInf | Incumbent    BestBd   Gap | It/Node Time

     0     0 132524.939    0   59          - 132524.939      -     -    0s
H    0     0                    671198.68145 132524.939  80.3%     -    0s
H    0     0                    238514.48304 132524.939  44.4%     -    0s
H    0     0                    223572.45789 132524.939  40.7%     -    0s
     0     0 149313.733    0   51 223572.458 149313.733  33.2%     -    0s
     0     0 149313.733    0   58 223572.458 149313.733  33.2%     -    0s
H    0     0                    221839.50000 149313.733  32.7%     -    0s
H    0     0                    213845.17526 149313.733  30.2%     -    0s
H    0     0                    208005.70789 149313.733  28.2%     -    0s
     0     0 153500.540    0   53 208005.708 153500.540  26.2%     -    0s
     0     0 176643.598    0   42 208005.708 176643.598  15.1%     -    0s
     0     0 179358.384    0   54 208005.708 179358.384  13.8%     -    0s
H    0     0                    207525.90000 179358.384  13.6%     -    0s
     0     0 180568.133    0   60 207525.900 180568.133  13.0%     -    0s
     0     0 180902.773    0   74 207525.900 180902.773  12.8%     -    0s
     0     0 181722.153    0   94 207525.900 181722.153  12.4%     -    0s
     0     0 181805.020    0   85 207525.900 181805.020  12.4%     -    0s
     0     0 181818.157    0   82 207525.900 181818.157  12.4%     -    0s
     0     0 182587.175    0   77 207525.900 182587.175  12.0%     -    0s
     0     0 182592.476    0   77 207525.900 182592.476  12.0%     -    0s
     0     0 182918.830    0   79 207525.900 182918.830  11.9%     -    0s
     0     0 183205.997    0   60 207525.900 183205.997  11.7%     -    0s
     0     0 183205.997    0   60 207525.900 183205.997  11.7%     -    0s
     0     2 184705.548    0   60 207525.900 184705.548  11.0%     -    0s

Cutting planes:
  Gomory: 9
  Cover: 1
  Clique: 78
  MIR: 8
  StrongCG: 1
  Zero half: 37
  RLT: 3

Explored 1562 nodes (29857 simplex iterations) in 1.77 seconds
Thread count was 12 (of 12 available processors)

Solution count 7: 207526 208006 213845 ... 671199

Optimal solution found (tolerance 1.00e-04)
Best objective 2.075259000000e+05, best bound 2.075259000000e+05, gap 0.0000%

    Variable            x 
-------------------------
x_0_0_120_4_139            1 
x_0_4_139_0_145            1 
x_1_0_24_4_43            1 
x_1_1_50_3_56            1 
x_1_3_56_0_62            1 
x_1_4_43_1_50            1 
x_2_0_144_4_163            1 
x_2_4_163_0_169            1 
x_3_0_0_4_19            1 
x_3_1_26_3_32            1 
x_3_2_38_0_44            1 
x_3_3_32_2_38            1 
x_3_4_19_1_26            1 

Gurobi 9.0.2 (win64, Python) logging started Wed May  6 12:25:43 2020

Using license file C:\Users\andrebmo\gurobi.lic
Set parameter TokenServer to value 129.241.14.51
Set parameter LogFile to value Instance-i5-v4-s2-t168-m3-is0-ws1.log
Changed value of parameter TimeLimit to 10800.0
   Prev: inf  Min: 0.0  Max: inf  Default: inf
Warning: constraint name "Flow_Conservation:_v5 i4 t154[0,1,26]" has a space
Gurobi Optimizer version 9.0.2 build v9.0.2rc0 (win64)
Optimize a model with 1817 rows, 3099 columns and 35028 nonzeros
Model fingerprint: 0xdd466fd3
Variable types: 0 continuous, 3099 integer (3099 binary)
Coefficient statistics:
  Matrix range     [1e+00, 1e+02]
  Objective range  [1e+04, 4e+05]
  Bounds range     [1e+00, 1e+00]
  RHS range        [1e+00, 6e+02]
Presolve removed 1141 rows and 643 columns
Presolve time: 0.13s
Presolved: 676 rows, 2456 columns, 12451 nonzeros
Variable types: 0 continuous, 2456 integer (2456 binary)

Root relaxation: objective 1.325017e+05, 735 iterations, 0.01 seconds

    Nodes    |    Current Node    |     Objective Bounds      |     Work
 Expl Unexpl |  Obj  Depth IntInf | Incumbent    BestBd   Gap | It/Node Time

     0     0 132524.939    0   59          - 132524.939      -     -    0s
H    0     0                    671198.68145 132524.939  80.3%     -    0s
H    0     0                    238514.48304 132524.939  44.4%     -    0s
H    0     0                    223572.45789 132524.939  40.7%     -    0s
     0     0 149313.733    0   51 223572.458 149313.733  33.2%     -    0s
     0     0 149313.733    0   58 223572.458 149313.733  33.2%     -    0s
H    0     0                    221839.50000 149313.733  32.7%     -    0s
H    0     0                    213845.17526 149313.733  30.2%     -    0s
H    0     0                    208005.70789 149313.733  28.2%     -    0s
     0     0 153500.540    0   53 208005.708 153500.540  26.2%     -    0s
     0     0 176643.598    0   42 208005.708 176643.598  15.1%     -    0s
     0     0 179358.384    0   54 208005.708 179358.384  13.8%     -    0s
H    0     0                    207525.90000 179358.384  13.6%     -    0s
     0     0 180568.133    0   60 207525.900 180568.133  13.0%     -    0s
     0     0 180902.773    0   74 207525.900 180902.773  12.8%     -    0s
     0     0 181722.153    0   94 207525.900 181722.153  12.4%     -    0s
     0     0 181805.020    0   85 207525.900 181805.020  12.4%     -    0s
     0     0 181818.157    0   82 207525.900 181818.157  12.4%     -    0s
     0     0 182587.175    0   77 207525.900 182587.175  12.0%     -    0s
     0     0 182592.476    0   77 207525.900 182592.476  12.0%     -    0s
     0     0 182918.830    0   79 207525.900 182918.830  11.9%     -    0s
     0     0 183205.997    0   60 207525.900 183205.997  11.7%     -    0s
     0     0 183205.997    0   60 207525.900 183205.997  11.7%     -    0s
     0     2 184705.548    0   60 207525.900 184705.548  11.0%     -    0s

Cutting planes:
  Gomory: 9
  Cover: 1
  Clique: 78
  MIR: 8
  StrongCG: 1
  Zero half: 37
  RLT: 3

Explored 1562 nodes (29857 simplex iterations) in 1.68 seconds
Thread count was 12 (of 12 available processors)

Solution count 7: 207526 208006 213845 ... 671199

Optimal solution found (tolerance 1.00e-04)
Best objective 2.075259000000e+05, best bound 2.075259000000e+05, gap 0.0000%

    Variable            x 
-------------------------
x_0_0_120_4_139            1 
x_0_4_139_0_145            1 
x_1_0_24_4_43            1 
x_1_1_50_3_56            1 
x_1_3_56_0_62            1 
x_1_4_43_1_50            1 
x_2_0_144_4_163            1 
x_2_4_163_0_169            1 
x_3_0_0_4_19            1 
x_3_1_26_3_32            1 
x_3_2_38_0_44            1 
x_3_3_32_2_38            1 
x_3_4_19_1_26            1 

Solution quality statistics for model Instance-i5-v4-s2-t168-m3-is0-ws1 :
  Maximum violation:
    Bound       : 0.00000000e+00
    Constraint  : 0.00000000e+00
    Integrality : 0.00000000e+00
